u120_09
150 120 46 49
91 0
55 0
60 1
37 1
86 2
21 1
21 1
43 2
77 3
75 4
92 5
33 3
59 4
74 6
40 5
36 3
62 6
21 7
56 7
38 7
22 7
45 8
94 8
68 9
83 10
86 11
75 9
21 10
40 10
44 11
74 12
52 12
61 13
95 14
20 2
79 13
76 15
32 14
21 12
91 16
83 17
39 15
31 15
81 18
41 16
90 19
74 20
100 21
38 17
33 18
74 20
40 19
80 22
39 21
22 14
46 22
58 23
65 23
67 24
37 24
82 25
64 25
26 17
80 26
74 27
20 18
62 26
82 28
40 24
28 27
72 29
45 27
62 28
72 29
89 30
31 30
92 31
63 32
89 33
33 31
25 23
54 32
66 34
100 35
20 22
90 36
87 37
48 33
28 30
46 34
76 38
50 36
66 38
30 32
26 34
23 31
40 35
70 39
57 37
92 40
52 39
54 40
27 39
58 41
66 41
65 42
93 43
83 42
37 43
62 44
94 45
29 44
66 46
98 47
20 41
66 46
42 44
52 45
90 48
22 47